peakDumbCharging = 22200; 
Machine = anon_enum(16); 
machineSpeed = [3700,3700,3700,3700,3700,3700,3700,3700,3700,3700,3700,3700,3700,3700,3700,3700]; 
machineLoad = [3700,3700,3700,3700,3700,3700,3700,3700,3700,3700,3700,3700,3700,3700,3700,3700]; 
Car = anon_enum(27); 
demandCar = [12280,12120,12000,16121,3800,11280,20640,9240,10080,11120,2200,3640,4600,2120,6880,5520,4320,5520,13920,2160,8880,9960,17160,12960,15400,4320,4960]; 
arrivalCar = [76,69,68,64,64,62,58,58,57,57,55,55,55,54,52,52,49,49,47,47,45,45,44,44,41,40,36]; 
departureCar = [80,74,72,71,67,67,66,61,65,62,58,60,59,56,55,54,52,53,54,49,51,57,53,49,48,42,41]; 
